GLPSOL--GLPK LP/MIP Solver 5.0
Parameter(s) specified in the command line:
 --lp ../modeles/4_284.lp --log 4_284.log
Reading problem data from '../modeles/4_284.lp'...
1153 rows, 2280 columns, 7964 non-zeros
1136 integer variables, all of which are binary
3443 lines were read
GLPK Integer Optimizer 5.0
1153 rows, 2280 columns, 7964 non-zeros
1136 integer variables, all of which are binary
Preprocessing...
1128 constraint coefficient(s) were reduced
1153 rows, 2276 columns, 7960 non-zeros
1136 integer variables, all of which are binary
Scaling...
 A: min|aij| =  1.984e-04  max|aij| =  4.000e+00  ratio =  2.016e+04
GM: min|aij| =  8.392e-02  max|aij| =  1.192e+01  ratio =  1.420e+02
EQ: min|aij| =  7.042e-03  max|aij| =  1.000e+00  ratio =  1.420e+02
2N: min|aij| =  6.348e-03  max|aij| =  1.761e+00  ratio =  2.774e+02
Constructing initial basis...
Size of triangular part is 1153
Solving LP relaxation...
GLPK Simplex Optimizer 5.0
1153 rows, 2276 columns, 7960 non-zeros
      0: obj =   8.000000000e+00 inf =   1.950e+01 (9)
     75: obj =   4.198348337e-01 inf =   0.000e+00 (0)
*   263: obj =  -1.999801627e+00 inf =   1.693e-15 (0)
OPTIMAL LP SOLUTION FOUND
Integer optimization begins...
Long-step dual simplex will be used
+   263: mip =     not found yet >=              -inf        (1; 0)
+   588: >>>>>  -1.999801627e+00 >=  -1.999801627e+00 < 0.1% (323; 0)
+   588: mip =  -1.999801627e+00 >=     tree is empty   0.0% (0; 645)
INTEGER OPTIMAL SOLUTION FOUND
Time used:   0.5 secs
Memory used: 3.4 Mb (3529190 bytes)
